
(set-logic ALL) 

(declare-datatype MyList ((Nil) (Cons (head Real) (tail MyList)) )) 
(declare-fun l0 () MyList) 
(declare-fun l1 () MyList) 
(declare-fun l2 () MyList) 
(declare-fun l3 () MyList) 
(declare-fun i0 () Real) 
(declare-fun i1 () Real) 
(assert (is-Nil l3) )
(assert (or (is-Cons l2) (= l2 Nil)) )
(assert (not (= l1 Nil)) )
(assert (is-Nil Nil) )
(assert (is-Nil l2) )
(assert (is-Nil Nil) )
(assert (or (= l1 l0) (is-Nil Nil) (is-Cons Nil) (= l0 Nil)) )
(assert (= l2 l2) )
(check-sat)
